* ENCODING=ISO-8859-1
NAME          CPLEX
ROWS
 N  obj1    
 G  c1      
 G  c2      
 G  c3      
 G  c4      
 G  c5      
 G  c6      
 G  c7      
 G  c8      
 G  c9      
 G  c10     
 G  c11     
 G  c12     
 G  c13     
 G  c14     
 G  c15     
 G  c16     
 G  c17     
 G  c18     
 G  c19     
 G  c20     
 G  c21     
 G  c22     
 G  c23     
 G  c24     
 G  c25     
 G  c26     
 G  c27     
 G  c28     
 G  c29     
 G  c30     
 G  c31     
 G  c32     
 G  c33     
 G  c34     
 G  c35     
 G  c36     
 G  c37     
 G  c38     
 G  c39     
 G  c40     
COLUMNS
    MARK0000  'MARKER'                 'INTORG'
    x1        obj1                            1
    x1        c2                            315
    x1        c31                           138
    x1        c35                           206
    x2        obj1                            1
    x2        c2                            312
    x2        c12                           883
    x2        c24                           451
    x2        c31                           560
    x3        obj1                            1
    x3        c18                           467
    x3        c25                           288
    x4        obj1                            1
    x4        c18                           463
    x4        c19                           121
    x4        c31                           812
    x5        obj1                            1
    x5        c3                            662
    x5        c23                           402
    x5        c29                           903
    x5        c36                           105
    x5        c37                           360
    x6        obj1                            1
    x6        c1                            764
    x6        c3                            331
    x6        c22                           721
    x6        c30                           326
    x6        c37                           337
    x7        obj1                            1
    x7        c8                            566
    x7        c10                           360
    x7        c11                           191
    x7        c18                           419
    x7        c20                           963
    x7        c34                           897
    x7        c36                           520
    x7        c39                           705
    x8        obj1                            1
    x8        c19                           148
    x8        c28                           982
    x8        c34                           679
    x8        c36                           632
    x9        obj1                            1
    x9        c3                            466
    x9        c5                            534
    x9        c14                           540
    x9        c27                           275
    x9        c33                           614
    x9        c35                           301
    x10       obj1                            1
    x10       c3                            659
    x10       c6                            399
    x10       c14                           705
    x10       c18                           981
    x10       c25                           662
    x11       obj1                            1
    x11       c4                            435
    x11       c5                            116
    x11       c9                            476
    x11       c34                           875
    x11       c35                           970
    x11       c37                           845
    x11       c39                           885
    x12       obj1                            1
    x12       c6                            385
    x12       c9                            827
    x12       c10                          1000
    x12       c23                           554
    x12       c25                           859
    x13       obj1                            1
    x13       c8                            902
    x13       c11                           229
    x13       c29                           564
    x13       c32                           456
    x13       c40                           591
    x14       obj1                            1
    x14       c2                            170
    x14       c6                            708
    x14       c32                           502
    x15       obj1                            1
    x15       c13                           134
    x15       c22                           448
    x15       c27                           390
    x15       c38                           691
    x16       obj1                            1
    x16       c8                            192
    x16       c15                           628
    x16       c18                           357
    x16       c31                           436
    x17       obj1                            1
    x17       c9                            855
    x17       c34                           675
    x18       obj1                            1
    x18       c7                            906
    x18       c13                           138
    x18       c28                           657
    x18       c36                           704
    x19       obj1                            1
    x19       c1                            171
    x19       c17                           664
    x19       c21                           253
    x19       c37                           417
    x19       c39                           348
    x20       obj1                            1
    x20       c4                            417
    x20       c33                           983
    x20       c37                           578
    x21       obj1                            1
    x21       c4                            695
    x21       c5                            620
    x21       c15                           720
    x22       obj1                            1
    x22       c9                            569
    x22       c16                           834
    x23       obj1                            1
    x23       c10                           322
    x23       c14                           737
    x23       c15                           823
    x23       c23                           745
    x23       c29                           522
    x23       c32                           125
    x24       obj1                            1
    x24       c4                            953
    x24       c21                           220
    x24       c23                           350
    x25       obj1                            1
    x25       c1                            229
    x25       c4                            458
    x25       c9                            570
    x26       obj1                            1
    x26       c26                           219
    x26       c39                           796
    x27       obj1                            1
    x27       c22                           258
    x28       obj1                            1
    x28       c18                           468
    x28       c26                           229
    x29       obj1                            1
    x29       c6                            327
    x29       c22                           561
    x29       c31                           985
    x29       c36                           643
    x30       obj1                            1
    x30       c20                           301
    x31       obj1                            1
    x31       c8                            476
    x31       c10                           866
    x31       c12                           332
    x31       c14                           244
    x31       c20                           227
    x31       c34                           294
    x32       obj1                            1
    x32       c1                            560
    x32       c11                           617
    x32       c18                           531
    x32       c19                           235
    x32       c39                           830
    x32       c40                           480
    x33       obj1                            1
    x33       c6                            345
    x33       c20                           395
    x33       c21                           347
    x33       c25                           364
    x34       obj1                            1
    x34       c12                           711
    x34       c18                           756
    x34       c26                           283
    x34       c32                           267
    x34       c36                           215
    x35       obj1                            1
    x35       c7                            901
    x35       c20                           351
    x35       c30                           695
    x35       c32                           543
    x35       c34                           814
    x35       c37                           292
    x36       obj1                            1
    x36       c6                            587
    x36       c14                           238
    x36       c26                           664
    x36       c27                           792
    x36       c35                           320
    x37       obj1                            1
    x37       c6                            898
    x37       c10                           809
    x38       obj1                            1
    x39       obj1                            1
    x39       c3                            527
    x39       c17                           494
    x39       c24                           243
    x39       c28                           533
    x39       c36                           421
    x40       obj1                            1
    x40       c8                            260
    x40       c15                           990
    x40       c26                           369
    x40       c37                           700
    x40       c39                           182
    x41       obj1                            1
    x41       c3                            317
    x41       c13                           693
    x41       c14                           387
    x41       c15                           987
    x41       c20                           665
    x41       c23                           365
    x42       obj1                            1
    x42       c7                            139
    x42       c11                           828
    x42       c37                           149
    x43       obj1                            1
    x43       c5                            634
    x43       c7                            805
    x43       c17                           460
    x43       c19                           741
    x43       c25                           342
    x43       c28                           243
    x43       c33                           688
    x44       obj1                            1
    x44       c3                            972
    x44       c7                            861
    x44       c31                           293
    x44       c39                           689
    x45       obj1                            1
    x45       c2                            188
    x45       c17                           717
    x45       c34                           884
    x46       obj1                            1
    x46       c9                            555
    x46       c10                           666
    x46       c22                           629
    x47       obj1                            1
    x47       c15                           607
    x47       c17                           951
    x47       c20                           629
    x47       c25                           773
    x47       c30                           221
    x47       c37                           597
    x48       obj1                            1
    x48       c3                            265
    x48       c14                           618
    x48       c18                           367
    x49       obj1                            1
    x49       c21                           308
    x49       c32                           700
    x50       obj1                            1
    x50       c8                            509
    x50       c10                           720
    x50       c13                           479
    x50       c15                           864
    x50       c19                           693
    x50       c34                           936
    x50       c37                           113
    x51       obj1                            1
    x51       c1                            404
    x51       c9                            793
    x51       c13                           427
    x51       c22                           355
    x51       c32                           949
    x51       c36                           538
    x52       obj1                            1
    x52       c1                            441
    x52       c34                           278
    x53       obj1                            1
    x53       c12                           661
    x53       c22                           448
    x53       c23                           684
    x53       c31                           575
    x54       obj1                            1
    x54       c10                           164
    x54       c15                           603
    x54       c16                           575
    x55       obj1                            1
    x55       c2                            577
    x55       c40                           560
    x56       obj1                            1
    x56       c6                            774
    x56       c7                            815
    x57       obj1                            1
    x57       c8                            871
    x57       c9                            933
    x57       c13                           331
    x57       c26                           515
    x57       c30                           510
    x58       obj1                            1
    x58       c2                            839
    x58       c12                           558
    x58       c16                           370
    x58       c23                           270
    x59       obj1                            1
    x59       c1                            415
    x59       c35                           444
    x60       obj1                            1
    x60       c8                            124
    x60       c28                           639
    x60       c40                           203
    x61       obj1                            1
    x61       c12                           597
    x61       c18                           994
    x61       c30                           753
    x61       c32                           691
    x62       obj1                            1
    x62       c9                            958
    x62       c20                           207
    x62       c26                           235
    x63       obj1                            1
    x63       c13                           660
    x63       c18                           271
    x63       c31                           177
    x63       c36                           954
    x64       obj1                            1
    x64       c1                            209
    x64       c5                            179
    x64       c10                           172
    x64       c31                           126
    x65       obj1                            1
    x65       c1                            167
    x65       c5                            887
    x65       c12                           905
    x65       c17                           419
    x65       c20                           739
    x66       obj1                            1
    x66       c8                            867
    x66       c30                           816
    x66       c39                           815
    x67       obj1                            1
    x67       c6                            459
    x67       c13                           483
    x67       c14                           838
    x67       c24                           338
    x67       c32                           497
    x68       obj1                            1
    x68       c13                           213
    x68       c31                           537
    x69       obj1                            1
    x69       c7                            407
    x69       c11                           806
    x69       c32                           721
    x69       c37                           704
    x70       obj1                            1
    x70       c17                           970
    x71       obj1                            1
    x71       c5                            312
    x71       c14                           485
    x71       c15                           932
    x71       c18                           746
    x71       c21                           258
    x71       c30                           257
    x72       obj1                            1
    x72       c23                           841
    x72       c24                           213
    x72       c27                           626
    x72       c30                           892
    x72       c35                           892
    x72       c38                           898
    x73       obj1                            1
    x73       c10                           493
    x73       c23                           765
    x73       c25                           259
    x73       c29                           831
    x73       c32                           380
    x74       obj1                            1
    x74       c1                            272
    x74       c12                           213
    x74       c17                           674
    x74       c32                           978
    x75       obj1                            1
    x75       c5                            631
    x75       c9                            518
    x75       c23                           478
    x75       c36                           873
    x75       c37                           575
    x75       c39                           313
    x76       obj1                            1
    x76       c3                            421
    x76       c9                            634
    x77       obj1                            1
    x77       c7                            370
    x77       c23                           446
    x77       c36                           112
    x77       c38                           807
    x78       obj1                            1
    x78       c9                            677
    x78       c11                           810
    x78       c13                           580
    x78       c24                           656
    x78       c33                           578
    x78       c38                           654
    x79       obj1                            1
    x79       c2                            508
    x79       c4                            525
    x79       c12                           293
    x79       c23                           111
    x80       obj1                            1
    x80       c16                           930
    x80       c20                           188
    x80       c39                           260
    MARK0001  'MARKER'                 'INTEND'
RHS
    rhs       c1                           1816
    rhs       c2                           1455
    rhs       c3                           2310
    rhs       c4                           1742
    rhs       c5                           1957
    rhs       c6                           2441
    rhs       c7                           2602
    rhs       c8                           2384
    rhs       c9                           4183
    rhs       c10                          2786
    rhs       c11                          1741
    rhs       c12                          2577
    rhs       c13                          2069
    rhs       c14                          2396
    rhs       c15                          3577
    rhs       c16                          1355
    rhs       c17                          2675
    rhs       c18                          3410
    rhs       c19                           969
    rhs       c20                          2333
    rhs       c21                           693
    rhs       c22                          1710
    rhs       c23                          3006
    rhs       c24                           951
    rhs       c25                          1774
    rhs       c26                          1257
    rhs       c27                          1042
    rhs       c28                          1527
    rhs       c29                          1410
    rhs       c30                          2235
    rhs       c31                          2320
    rhs       c32                          3405
    rhs       c33                          1432
    rhs       c34                          3166
    rhs       c35                          1567
    rhs       c36                          2859
    rhs       c37                          2834
    rhs       c38                          1525
    rhs       c39                          2912
    rhs       c40                           917
BOUNDS
 LI bnd       x1        0
 LI bnd       x2        0
 LI bnd       x3        0
 LI bnd       x4        0
 LI bnd       x5        0
 LI bnd       x6        0
 LI bnd       x7        0
 LI bnd       x8        0
 LI bnd       x9        0
 LI bnd       x10       0
 LI bnd       x11       0
 LI bnd       x12       0
 LI bnd       x13       0
 LI bnd       x14       0
 LI bnd       x15       0
 LI bnd       x16       0
 LI bnd       x17       0
 LI bnd       x18       0
 LI bnd       x19       0
 LI bnd       x20       0
 LI bnd       x21       0
 LI bnd       x22       0
 LI bnd       x23       0
 LI bnd       x24       0
 LI bnd       x25       0
 LI bnd       x26       0
 LI bnd       x27       0
 LI bnd       x28       0
 LI bnd       x29       0
 LI bnd       x30       0
 LI bnd       x31       0
 LI bnd       x32       0
 LI bnd       x33       0
 LI bnd       x34       0
 LI bnd       x35       0
 LI bnd       x36       0
 LI bnd       x37       0
 LI bnd       x38       0
 LI bnd       x39       0
 LI bnd       x40       0
 LI bnd       x41       0
 LI bnd       x42       0
 LI bnd       x43       0
 LI bnd       x44       0
 LI bnd       x45       0
 LI bnd       x46       0
 LI bnd       x47       0
 LI bnd       x48       0
 LI bnd       x49       0
 LI bnd       x50       0
 LI bnd       x51       0
 LI bnd       x52       0
 LI bnd       x53       0
 LI bnd       x54       0
 LI bnd       x55       0
 LI bnd       x56       0
 LI bnd       x57       0
 LI bnd       x58       0
 LI bnd       x59       0
 LI bnd       x60       0
 LI bnd       x61       0
 LI bnd       x62       0
 LI bnd       x63       0
 LI bnd       x64       0
 LI bnd       x65       0
 LI bnd       x66       0
 LI bnd       x67       0
 LI bnd       x68       0
 LI bnd       x69       0
 LI bnd       x70       0
 LI bnd       x71       0
 LI bnd       x72       0
 LI bnd       x73       0
 LI bnd       x74       0
 LI bnd       x75       0
 LI bnd       x76       0
 LI bnd       x77       0
 LI bnd       x78       0
 LI bnd       x79       0
 LI bnd       x80       0
ENDATA
